137155
28,27,10,59,66,44,87,1,43,79,91,60,96,18,32,75,63,53,84,7,49,39,37,70,94,78,3,101,105,38,104,11,41,67,95,54,71,36,85,48,73,2,33,82,72,100,51,35,103,4,15,61,47,14,102,24,74,26,50,68,99,19,42,81,46,77,86,25,45,62,22,21,17,90,64,16,20,56,40,6,69,88,13,98,31,65,52,5,30,29,55,97,8,106,9,34,83,57,80,23,92,12,93,89,76,58,28